c description: Random 3-CNF over 15 variables and 30 clauses
c generator: CNFgen (0.9.0)
c copyright: (C) 2012-2020 Massimo Lauria <massimo.lauria@uniroma1.it>
c url: https://massimolauria.net/cnfgen
c
p cnf 15 30
2 4 14 0
-6 -7 10 0
-9 12 -13 0
7 -10 -12 0
-4 -7 11 0
1 10 15 0
-7 11 14 0
4 8 -12 0
5 -11 12 0
-1 2 13 0
2 -5 13 0
-1 7 8 0
1 3 -10 0
1 9 -10 0
2 12 14 0
-2 -4 -10 0
-5 11 -13 0
8 -10 -14 0
1 -8 -14 0
-5 12 13 0
12 -13 14 0
-6 -7 13 0
-2 11 12 0
5 -9 11 0
1 13 14 0
5 6 12 0
4 12 14 0
6 -9 -12 0
-1 -7 11 0
-3 11 13 0